outputs/case_57.model.txt
stop_operation_approved = False
fund_usage_approved_investment_trust_fund = False
fund_usage_other_approved = True
extension_applied_and_approved = False
stop_operation_no_approval_penalty = True
fund_usage_treasury_bills_or_commercial_papers = False
stop_operation_duration_months = 0
fund_usage_government_bonds = False
fund_usage_domestic_bank_deposit = False
stop_operation_applied = False
endorses_notes = False
complies_company_law_article_16_1 = True
provides_guarantee = False
business_types_approved = False
provides_collateral_for_others = False
approved_by_authority = False
registration_days_since_permit = 7
contract_no_client_fund_receipt = True
membership_compliant = True
contract_signed = True
violates_regulations = False
contract_effective_date_and_duration_included = True
written_contract_signed = True
compensation_requested = True
fund_usage_compliant = True
contract_service_scope_included = True
client_evaluation_performed = True
fund_used_for_other_purposes = False
contract_modification_and_termination_included = True
has_disqualifying_condition = False
business_approval_required = False
contract_refund_ratio_and_method_included = True
joined_trade_association = True
prohibited_fund_usage = True
contract_mandatory_items_compliant = True
fund_used_for_non_operating_real_estate = False
personnel_registered_before_duty = True
contract_other_regulated_items_included = True
contract_confidentiality_clause_included = True
contract_fee_and_payment_included = True
business_license_application_timely = True
contract_dispute_resolution_included = True
contract_client_termination_right_included = True
contract_non_disclosure_clause_included = True
contract_service_method_included = True
business_operation_permitted = True
personnel_registration_compliant = True
contract_party_names_included = True
personnel_full_time = True
contract_no_profit_loss_sharing = True
contract_termination_compensation_limit_compliant = True
fund_loaned_to_others = False
client_evaluation_done = True
contract_rights_obligations_included = True
damages_or_penalty_requested = False
penalty = False
business_operation_approved = True
personnel_registration_valid = True
guarantee_and_collateral_compliant = True
does_not_meet_qualification = False
stop_operation_approved_and_within_limit = False